c Circuit verification problem 07
c Large hardware module verification
c Complex combinational logic with deep dependencies
c Generated for SAT solver benchmarking
c This problem tests solver performance on medium-hard instances
p cnf 180 750
1 2 3 0
-1 -2 0
-1 -3 0
-2 -3 0
4 5 6 0
-4 -5 0
-4 -6 0
-5 -6 0
7 8 9 0
-7 -8 0
-7 -9 0
-8 -9 0
1 4 7 0
-1 10 0
-4 10 0
-7 10 0
2 5 8 0
-2 11 0
-5 11 0
-8 11 0
3 6 9 0
-3 12 0
-6 12 0
-9 12 0
10 11 12 0
-10 -11 0
-10 -12 0
-11 -12 0
13 14 15 0
-13 -14 0
-13 -15 0
-14 -15 0
16 17 18 0
-16 -17 0
-16 -18 0
-17 -18 0
19 20 21 0
-19 -20 0
-19 -21 0
-20 -21 0
13 16 19 0
-13 22 0
-16 22 0
-19 22 0
14 17 20 0
-14 23 0
-17 23 0
-20 23 0
15 18 21 0
-15 24 0
-18 24 0
-21 24 0
22 23 24 0
-22 -23 0
-22 -24 0
-23 -24 0
10 22 25 0
-10 -22 25 0
-10 22 -25 0
10 -22 -25 0
11 23 26 0
-11 -23 26 0
-11 23 -26 0
11 -23 -26 0
12 24 27 0
-12 -24 27 0
-12 24 -27 0
12 -24 -27 0
25 26 27 0
-25 -26 0
-25 -27 0
-26 -27 0
28 29 30 0
-28 -29 0
-28 -30 0
-29 -30 0
31 32 33 0
-31 -32 0
-31 -33 0
-32 -33 0
34 35 36 0
-34 -35 0
-34 -36 0
-35 -36 0
28 31 34 0
-28 37 0
-31 37 0
-34 37 0
29 32 35 0
-29 38 0
-32 38 0
-35 38 0
30 33 36 0
-30 39 0
-33 39 0
-36 39 0
37 38 39 0
-37 -38 0
-37 -39 0
-38 -39 0
40 41 42 0
-40 -41 0
-40 -42 0
-41 -42 0
43 44 45 0
-43 -44 0
-43 -45 0
-44 -45 0
46 47 48 0
-46 -47 0
-46 -48 0
-47 -48 0
40 43 46 0
-40 49 0
-43 49 0
-46 49 0
41 44 47 0
-41 50 0
-44 50 0
-47 50 0
42 45 48 0
-42 51 0
-45 51 0
-48 51 0
49 50 51 0
-49 -50 0
-49 -51 0
-50 -51 0
37 49 52 0
-37 -49 52 0
-37 49 -52 0
37 -49 -52 0
38 50 53 0
-38 -50 53 0
-38 50 -53 0
38 -50 -53 0
39 51 54 0
-39 -51 54 0
-39 51 -54 0
39 -51 -54 0
52 53 54 0
-52 -53 0
-52 -54 0
-53 -54 0
55 56 57 0
-55 -56 0
-55 -57 0
-56 -57 0
58 59 60 0
-58 -59 0
-58 -60 0
-59 -60 0
61 62 63 0
-61 -62 0
-61 -63 0
-62 -63 0
55 58 61 0
-55 64 0
-58 64 0
-61 64 0
56 59 62 0
-56 65 0
-59 65 0
-62 65 0
57 60 63 0
-57 66 0
-60 66 0
-63 66 0
64 65 66 0
-64 -65 0
-64 -66 0
-65 -66 0
25 52 67 0
-25 -52 67 0
-25 52 -67 0
25 -52 -67 0
26 53 68 0
-26 -53 68 0
-26 53 -68 0
26 -53 -68 0
27 54 69 0
-27 -54 69 0
-27 54 -69 0
27 -54 -69 0
67 68 69 0
-67 -68 0
-67 -69 0
-68 -69 0
64 67 70 0
-64 -67 70 0
-64 67 -70 0
64 -67 -70 0
65 68 71 0
-65 -68 71 0
-65 68 -71 0
65 -68 -71 0
66 69 72 0
-66 -69 72 0
-66 69 -72 0
66 -69 -72 0
70 71 72 0
-70 -71 0
-70 -72 0
-71 -72 0
73 74 75 0
-73 -74 0
-73 -75 0
-74 -75 0
76 77 78 0
-76 -77 0
-76 -78 0
-77 -78 0
79 80 81 0
-79 -80 0
-79 -81 0
-80 -81 0
73 76 79 0
-73 82 0
-76 82 0
-79 82 0
74 77 80 0
-74 83 0
-77 83 0
-80 83 0
75 78 81 0
-75 84 0
-78 84 0
-81 84 0
82 83 84 0
-82 -83 0
-82 -84 0
-83 -84 0
85 86 87 0
-85 -86 0
-85 -87 0
-86 -87 0
88 89 90 0
-88 -89 0
-88 -90 0
-89 -90 0
91 92 93 0
-91 -92 0
-91 -93 0
-92 -93 0
85 88 91 0
-85 94 0
-88 94 0
-91 94 0
86 89 92 0
-86 95 0
-89 95 0
-92 95 0
87 90 93 0
-87 96 0
-90 96 0
-93 96 0
94 95 96 0
-94 -95 0
-94 -96 0
-95 -96 0
82 94 97 0
-82 -94 97 0
-82 94 -97 0
82 -94 -97 0
83 95 98 0
-83 -95 98 0
-83 95 -98 0
83 -95 -98 0
84 96 99 0
-84 -96 99 0
-84 96 -99 0
84 -96 -99 0
97 98 99 0
-97 -98 0
-97 -99 0
-98 -99 0
70 97 100 0
-70 -97 100 0
-70 97 -100 0
70 -97 -100 0
71 98 101 0
-71 -98 101 0
-71 98 -101 0
71 -98 -101 0
72 99 102 0
-72 -99 102 0
-72 99 -102 0
72 -99 -102 0
100 101 102 0
-100 -101 0
-100 -102 0
-101 -102 0
103 104 105 0
-103 -104 0
-103 -105 0
-104 -105 0
106 107 108 0
-106 -107 0
-106 -108 0
-107 -108 0
109 110 111 0
-109 -110 0
-109 -111 0
-110 -111 0
103 106 109 0
-103 112 0
-106 112 0
-109 112 0
104 107 110 0
-104 113 0
-107 113 0
-110 113 0
105 108 111 0
-105 114 0
-108 114 0
-111 114 0
112 113 114 0
-112 -113 0
-112 -114 0
-113 -114 0
115 116 117 0
-115 -116 0
-115 -117 0
-116 -117 0
118 119 120 0
-118 -119 0
-118 -120 0
-119 -120 0
121 122 123 0
-121 -122 0
-121 -123 0
-122 -123 0
115 118 121 0
-115 124 0
-118 124 0
-121 124 0
116 119 122 0
-116 125 0
-119 125 0
-122 125 0
117 120 123 0
-117 126 0
-120 126 0
-123 126 0
124 125 126 0
-124 -125 0
-124 -126 0
-125 -126 0
112 124 127 0
-112 -124 127 0
-112 124 -127 0
112 -124 -127 0
113 125 128 0
-113 -125 128 0
-113 125 -128 0
113 -125 -128 0
114 126 129 0
-114 -126 129 0
-114 126 -129 0
114 -126 -129 0
127 128 129 0
-127 -128 0
-127 -129 0
-128 -129 0
100 127 130 0
-100 -127 130 0
-100 127 -130 0
100 -127 -130 0
101 128 131 0
-101 -128 131 0
-101 128 -131 0
101 -128 -131 0
102 129 132 0
-102 -129 132 0
-102 129 -132 0
102 -129 -132 0
130 131 132 0
-130 -131 0
-130 -132 0
-131 -132 0
133 134 135 0
-133 -134 0
-133 -135 0
-134 -135 0
136 137 138 0
-136 -137 0
-136 -138 0
-137 -138 0
139 140 141 0
-139 -140 0
-139 -141 0
-140 -141 0
133 136 139 0
-133 142 0
-136 142 0
-139 142 0
134 137 140 0
-134 143 0
-137 143 0
-140 143 0
135 138 141 0
-135 144 0
-138 144 0
-141 144 0
142 143 144 0
-142 -143 0
-142 -144 0
-143 -144 0
145 146 147 0
-145 -146 0
-145 -147 0
-146 -147 0
148 149 150 0
-148 -149 0
-148 -150 0
-149 -150 0
151 152 153 0
-151 -152 0
-151 -153 0
-152 -153 0
145 148 151 0
-145 154 0
-148 154 0
-151 154 0
146 149 152 0
-146 155 0
-149 155 0
-152 155 0
147 150 153 0
-147 156 0
-150 156 0
-153 156 0
154 155 156 0
-154 -155 0
-154 -156 0
-155 -156 0
142 154 157 0
-142 -154 157 0
-142 154 -157 0
142 -154 -157 0
143 155 158 0
-143 -155 158 0
-143 155 -158 0
143 -155 -158 0
144 156 159 0
-144 -156 159 0
-144 156 -159 0
144 -156 -159 0
157 158 159 0
-157 -158 0
-157 -159 0
-158 -159 0
130 157 160 0
-130 -157 160 0
-130 157 -160 0
130 -157 -160 0
131 158 161 0
-131 -158 161 0
-131 158 -161 0
131 -158 -161 0
132 159 162 0
-132 -159 162 0
-132 159 -162 0
132 -159 -162 0
160 161 162 0
-160 -161 0
-160 -162 0
-161 -162 0
163 164 165 0
-163 -164 0
-163 -165 0
-164 -165 0
166 167 168 0
-166 -167 0
-166 -168 0
-167 -168 0
169 170 171 0
-169 -170 0
-169 -171 0
-170 -171 0
163 166 169 0
-163 172 0
-166 172 0
-169 172 0
164 167 170 0
-164 173 0
-167 173 0
-170 173 0
165 168 171 0
-165 174 0
-168 174 0
-171 174 0
172 173 174 0
-172 -173 0
-172 -174 0
-173 -174 0
160 172 175 0
-160 -172 175 0
-160 172 -175 0
160 -172 -175 0
161 173 176 0
-161 -173 176 0
-161 173 -176 0
161 -173 -176 0
162 174 177 0
-162 -174 177 0
-162 174 -177 0
162 -174 -177 0
175 176 177 0
-175 -176 0
-175 -177 0
-176 -177 0
1 175 178 0
-1 -175 178 0
-1 175 -178 0
1 -175 -178 0
2 176 179 0
-2 -176 179 0
-2 176 -179 0
2 -176 -179 0
3 177 180 0
-3 -177 180 0
-3 177 -180 0
3 -177 -180 0
178 179 180 0
-178 -179 0
-178 -180 0
-179 -180 0
4 13 28 40 0
5 14 29 41 0
6 15 30 42 0
7 16 31 43 0
8 17 32 44 0
9 18 33 45 0
19 46 55 73 0
20 47 56 74 0
21 48 57 75 0
22 49 58 76 0
23 50 59 77 0
24 51 60 78 0
25 64 82 103 0
26 65 83 104 0
27 66 84 105 0
34 61 79 85 0
35 62 80 86 0
36 63 81 87 0
37 88 106 115 0
38 89 107 116 0
39 90 108 117 0
52 91 109 118 0
53 92 110 119 0
54 93 111 120 0
67 94 112 121 0
68 95 113 122 0
69 96 114 123 0
70 97 124 133 0
71 98 125 134 0
72 99 126 135 0
100 127 136 145 0
101 128 137 146 0
102 129 138 147 0
112 130 139 148 0
113 131 140 149 0
114 132 141 150 0
142 151 163 0
143 152 164 0
144 153 165 0
154 166 172 0
155 167 173 0
156 168 174 0
157 169 175 0
158 170 176 0
159 171 177 0
10 178 0
11 179 0
12 180 0
-178 -10 0
-179 -11 0
-180 -12 0
1 4 7 10 13 0
2 5 8 11 14 0
3 6 9 12 15 0
16 19 22 25 28 0
17 20 23 26 29 0
18 21 24 27 30 0
31 34 37 40 43 0
32 35 38 41 44 0
33 36 39 42 45 0
46 49 52 55 58 0
47 50 53 56 59 0
48 51 54 57 60 0
61 64 67 70 73 0
62 65 68 71 74 0
63 66 69 72 75 0
76 79 82 85 88 0
77 80 83 86 89 0
78 81 84 87 90 0
91 94 97 100 103 0
92 95 98 101 104 0
93 96 99 102 105 0
106 109 112 115 118 0
107 110 113 116 119 0
108 111 114 117 120 0
121 124 127 130 133 0
122 125 128 131 134 0
123 126 129 132 135 0
136 139 142 145 148 0
137 140 143 146 149 0
138 141 144 147 150 0
151 154 157 160 163 0
152 155 158 161 164 0
153 156 159 162 165 0
166 169 172 175 178 0
167 170 173 176 179 0
168 171 174 177 180 0
-1 -16 -31 0
-2 -17 -32 0
-3 -18 -33 0
-4 -19 -34 0
-5 -20 -35 0
-6 -21 -36 0
-7 -22 -37 0
-8 -23 -38 0
-9 -24 -39 0
-10 -25 -40 0
-11 -26 -41 0
-12 -27 -42 0
-13 -28 -43 0
-14 -29 -44 0
-15 -30 -45 0
-46 -61 -76 0
-47 -62 -77 0
-48 -63 -78 0
-49 -64 -79 0
-50 -65 -80 0
-51 -66 -81 0
-52 -67 -82 0
-53 -68 -83 0
-54 -69 -84 0
-55 -70 -85 0
-56 -71 -86 0
-57 -72 -87 0
-58 -73 -88 0
-59 -74 -89 0
-60 -75 -90 0
-91 -106 -121 0
-92 -107 -122 0
-93 -108 -123 0
-94 -109 -124 0
-95 -110 -125 0
-96 -111 -126 0
-97 -112 -127 0
-98 -113 -128 0
-99 -114 -129 0
-100 -115 -130 0
-101 -116 -131 0
-102 -117 -132 0
-103 -118 -133 0
-104 -119 -134 0
-105 -120 -135 0
-136 -151 -166 0
-137 -152 -167 0
-138 -153 -168 0
-139 -154 -169 0
-140 -155 -170 0
-141 -156 -171 0
-142 -157 -172 0
-143 -158 -173 0
-144 -159 -174 0
-145 -160 -175 0
-146 -161 -176 0
-147 -162 -177 0
-148 -163 -178 0
-149 -164 -179 0
-150 -165 -180 0
1 52 103 154 0
2 53 104 155 0
3 54 105 156 0
4 55 106 157 0
5 56 107 158 0
6 57 108 159 0
7 58 109 160 0
8 59 110 161 0
9 60 111 162 0
10 61 112 163 0
11 62 113 164 0
12 63 114 165 0
13 64 115 166 0
14 65 116 167 0
15 66 117 168 0
16 67 118 169 0
17 68 119 170 0
18 69 120 171 0
19 70 121 172 0
20 71 122 173 0
21 72 123 174 0
22 73 124 175 0
23 74 125 176 0
24 75 126 177 0
25 76 127 178 0
26 77 128 179 0
27 78 129 180 0
28 79 130 0
29 80 131 0
30 81 132 0
31 82 133 0
32 83 134 0
33 84 135 0
34 85 136 0
35 86 137 0
36 87 138 0
37 88 139 0
38 89 140 0
39 90 141 0
40 91 142 0
41 92 143 0
42 93 144 0
43 94 145 0
44 95 146 0
45 96 147 0
46 97 148 0
47 98 149 0
48 99 150 0
49 100 151 0
50 101 152 0
51 102 153 0